Route #1:
Route #2: 31
Route #3: 23 2 4 7
Route #4: 13 16
Route #5: 24 21 17 11
Route #6: 29 28
Route #7: 12
Route #8: 3 30
Route #9: 19
Route #10: 1
Route #11: 9 25 5 10 15 18 8 22
Route #12: 26 27 14
Route #13: 6
Route #14: 20

Cost: 2033.1569478206613
